PROBLEM NAME: eil51_n7
KNAPSACK DATA TYPE: uncorrelated
DIMENSION: 7
NUMBER OF ITEMS: 30
CAPACITY OF KNAPSACK: 16065
MIN SPEED: 0.1
MAX SPEED: 1
RENTING RATIO: 28.39
EDGE_WEIGHT_TYPE: CEIL_2D
NODE_COORD_SECTION	(INDEX, X, Y):
1	42	57
2	7	38
3	30	48
4	45	35
5	5	6
6	56	37
7	30	40
ITEMS SECTION	(INDEX, PROFIT, WEIGHT, ASSIGNED NODE NUMBER):
1	971	41	3
2	903	776	3
3	898	902	3
4	891	532	3
5	867	970	3
6	832	322	7
7	808	906	7
8	801	949	7
9	727	724	7
10	710	416	7
11	632	343	2
12	602	326	2
13	572	300	2
14	548	340	2
15	537	551	2
16	518	149	5
17	514	512	5
18	434	925	5
19	431	493	5
20	383	700	5
21	383	736	4
22	343	581	4
23	281	930	4
24	272	208	4
25	218	428	4
26	212	811	6
27	138	148	6
28	116	909	6
29	106	893	6
30	91	851	6
